c FILE /home/rafael/Documents/HappySet/MIHS/inputs/happygen/output/graph_d_regular_k7_p0.2_v100_20241127_084058.txt
c SOURCE This is a d-regular graph formed for the happy graph colouring problem.
c DESCRIPTION It was generated using the problem generator of Rhyd Lewis
c
c GRAPH STATS
c Seed                             = 1549602097
c Number of Nodes                  = 100
c Number of colours k              = 7
c Number of pre-assignments        = 20
c Degree of all vertices           = 6
c Density                          = 0.0606061
c 
c The degrees of nodes 1 to 100, respectively, are as follows 
c [6, 6, 6, 6, 6, 6, 6, 6, 6, 6, 6, 6, 6, 6, 6, 6, 6, 6, 6, 6, 6, 6, 6, 6, 6, 6, 
c  6, 6, 6, 6, 6, 6, 6, 6, 6, 6, 6, 6, 6, 6, 6, 6, 6, 6, 6, 6, 6, 6, 6, 6, 6, 
c  6, 6, 6, 6, 6, 6, 6, 6, 6, 6, 6, 6, 6, 6, 6, 6, 6, 6, 6, 6, 6, 6, 6, 6, 6, 
c  6, 6, 6, 6, 6, 6, 6, 6, 6, 6, 6, 6, 6, 6, 6, 6, 6, 6, 6, 6, 6, 6, 6, 6] 
c  
p edge 100 300 7
e 1 28
e 1 30
e 1 66
e 1 84
e 1 86
e 1 98
e 2 3
e 2 49
e 2 60
e 2 66
e 2 74
e 2 78
e 3 6
e 3 10
e 3 42
e 3 44
e 3 65
e 4 7
e 4 12
e 4 29
e 4 41
e 4 49
e 4 67
e 5 32
e 5 36
e 5 46
e 5 61
e 5 80
e 5 99
e 6 8
e 6 28
e 6 31
e 6 69
e 6 75
e 7 10
e 7 26
e 7 33
e 7 83
e 7 91
e 8 15
e 8 30
e 8 69
e 8 77
e 8 88
e 9 16
e 9 21
e 9 67
e 9 80
e 9 87
e 9 94
e 10 14
e 10 39
e 10 74
e 10 86
e 11 16
e 11 34
e 11 36
e 11 76
e 11 79
e 11 93
e 12 22
e 12 37
e 12 58
e 12 59
e 12 86
e 13 37
e 13 39
e 13 50
e 13 73
e 13 89
e 13 90
e 14 35
e 14 39
e 14 73
e 14 74
e 14 97
e 15 20
e 15 58
e 15 61
e 15 71
e 15 89
e 16 27
e 16 45
e 16 60
e 16 71
e 17 45
e 17 47
e 17 49
e 17 62
e 17 75
e 17 100
e 18 21
e 18 24
e 18 48
e 18 52
e 18 59
e 18 77
e 19 25
e 19 42
e 19 51
e 19 53
e 19 74
e 19 78
e 20 21
e 20 30
e 20 77
e 20 82
e 20 97
e 21 26
e 21 83
e 21 92
e 22 29
e 22 41
e 22 46
e 22 74
e 22 91
e 23 64
e 23 68
e 23 71
e 23 75
e 23 85
e 23 89
e 24 32
e 24 51
e 24 58
e 24 86
e 24 87
e 25 29
e 25 63
e 25 75
e 25 76
e 25 98
e 26 37
e 26 47
e 26 57
e 26 79
e 27 32
e 27 33
e 27 58
e 27 90
e 27 100
e 28 45
e 28 54
e 28 56
e 28 84
e 29 33
e 29 71
e 29 90
e 30 51
e 30 61
e 30 85
e 31 42
e 31 49
e 31 63
e 31 78
e 31 87
e 32 39
e 32 44
e 32 99
e 33 35
e 33 46
e 33 80
e 34 56
e 34 62
e 34 67
e 34 71
e 34 77
e 35 36
e 35 50
e 35 61
e 35 95
e 36 48
e 36 70
e 36 96
e 37 38
e 37 40
e 37 93
e 38 56
e 38 69
e 38 91
e 38 95
e 38 97
e 39 84
e 39 100
e 40 44
e 40 52
e 40 63
e 40 82
e 40 99
e 41 52
e 41 78
e 41 88
e 41 95
e 42 60
e 42 69
e 42 70
e 43 45
e 43 56
e 43 59
e 43 64
e 43 72
e 43 81
e 44 61
e 44 90
e 44 95
e 45 54
e 45 66
e 46 78
e 46 92
e 46 96
e 47 55
e 47 66
e 47 91
e 47 99
e 48 55
e 48 59
e 48 86
e 48 95
e 49 64
e 49 74
e 50 53
e 50 72
e 50 75
e 50 79
e 51 57
e 51 78
e 51 99
e 52 55
e 52 81
e 52 83
e 53 55
e 53 59
e 53 62
e 53 94
e 54 65
e 54 68
e 54 73
e 54 90
e 55 68
e 55 92
e 56 83
e 56 98
e 57 64
e 57 84
e 57 93
e 57 98
e 58 79
e 58 96
e 59 94
e 60 72
e 60 73
e 60 93
e 61 65
e 62 64
e 62 70
e 62 91
e 63 64
e 63 82
e 63 100
e 65 87
e 65 88
e 65 93
e 66 67
e 66 100
e 67 82
e 67 88
e 68 75
e 68 83
e 68 89
e 69 76
e 69 96
e 70 76
e 70 96
e 70 100
e 71 97
e 72 85
e 72 89
e 72 98
e 73 87
e 73 94
e 76 81
e 76 93
e 77 82
e 77 92
e 79 85
e 79 97
e 80 82
e 80 87
e 80 97
e 81 85
e 81 94
e 81 98
e 83 88
e 84 91
e 84 99
e 85 89
e 86 90
e 88 92
e 92 94
e 95 96
n 6 4
n 10 2
n 13 1
n 19 7
n 38 6
n 54 1
n 55 7
n 60 2
n 66 3
n 75 4
n 78 7
n 80 1
n 81 6
n 83 2
n 87 1
n 88 2
n 91 6
n 96 5
n 99 5
n 100 3
